NAME: OG
COMMENT: old problem
DIMENSION: 10
EDGE_WEIGHT_TYPE : EUC_2D
NODE_COORD_SECTION
Gliwice 0 1
Cairo 3 2
Rome 6 1
Krakow 7 4.5
Paris 15 -1
Alexandria 10 2.5
Berlin 16 11
Tokyo 5 6
HongKong 8 9
Rio 1.5 12